experiments/mac_chuffed/detailed-output/inst-34-273365972.dzn

A = 3;
T = 16;
X = 3;
Y = 3;
Z = 4;
building = array2d(0..2, 0..2, [0, 0, 0, 0, 1, 0, 0, 0, 0]);
